# Objective value = 3481.45
I_0_0 3649
I_0_1 5062
I_0_2 4359
I_0_3 4707
I_1_0 99
I_1_1 0
I_1_2 99
I_1_3 8.2434059578417873e-15
I_2_0 190
I_2_1 95
I_2_2 190
I_2_3 9.5000000000000014e+01
I_3_0 92
I_3_1 -6.8625660709642489e-15
I_3_2 9.1999999999999986e+01
I_3_3 6.38378239159465e-16
I_4_0 164
I_4_1 82
I_4_2 164
I_4_3 82
I_5_0 138
I_5_1 6.9000000000000014e+01
I_5_2 138
I_5_3 6.8999999999999972e+01
I_6_0 67
I_6_1 5.1139648071796273e-15
I_6_2 67
I_6_3 -2.2489822504301316e-14
I_7_0 120
I_7_1 60
I_7_2 120
I_7_3 6.0000000000000007e+01
I_8_0 49
I_8_1 0
I_8_2 49
I_8_3 0
I_9_0 66
I_9_1 -6.8695049648681561e-15
I_9_2 66
I_9_3 0
I_10_0 88
I_10_1 44
I_10_2 88
I_10_3 44
I_11_0 162
I_11_1 81
I_11_2 2.8421709430404007e-14
I_11_3 1.6200000000000006e+02
I_12_0 57
I_12_1 0
I_12_2 57
I_12_3 5.34565881143978e-15
I_13_0 48
I_13_1 0
I_13_2 48
I_13_3 0
I_14_0 50
I_14_1 0
I_14_2 50
I_14_3 1.2430377907546308e-14
I_15_0 27
I_15_1 0
I_15_2 2.6999999999999996e+01
I_15_3 0
I_16_0 154
I_16_1 77
I_16_2 -2.8421709430404007e-14
I_16_3 154
I_17_0 150
I_17_1 75
I_17_2 0
I_17_3 150
I_18_0 22
I_18_1 -3.8163916471489756e-17
I_18_2 22
I_18_3 -3.8163916471489756e-17
I_19_0 72
I_19_1 36
I_19_2 72
I_19_3 36
I_20_0 66
I_20_1 33
I_20_2 66
I_20_3 33
I_21_0 62
I_21_1 31
I_21_2 62
I_21_3 31
I_22_0 96
I_22_1 48
I_22_2 -5.6843418860808015e-14
I_22_3 9.6000000000000028e+01
I_23_0 36
I_23_1 1.7999999999999996e+01
I_23_2 3.5999999999999986e+01
I_23_3 1.8000000000000004e+01
I_24_0 13
I_24_1 0
I_24_2 13
I_24_3 0
I_25_0 148
I_25_1 74
I_25_2 0
I_25_3 148
q_1_0 0
q_1_1 198
q_1_2 8.2434059578417873e-15
q_2_0 -4.9027622239794511e-15
q_2_1 1.9000000000000006e+02
q_2_2 0
q_3_0 -6.8625660709642489e-15
q_3_1 184
q_3_2 1.4849232954361469e-14
q_4_0 0
q_4_1 164
q_4_2 0
q_5_0 2.0587698212892747e-14
q_5_1 1.3799999999999997e+02
q_5_2 -2.5757174171303632e-14
q_6_0 5.1139648071796273e-15
q_6_1 134
q_6_2 -2.2489822504301316e-14
q_7_0 -2.7061686225238191e-15
q_7_1 1.2000000000000001e+02
q_7_2 0
q_8_0 0
q_8_1 98
q_8_2 0
q_9_0 -6.8695049648681561e-15
q_9_1 132
q_9_2 0
q_10_0 -3.8163916471489756e-17
q_10_1 88
q_10_2 1.1102230246251565e-16
q_11_0 -4.2153780466236412e-15
q_11_1 0
q_11_2 2.4300000000000003e+02
q_12_0 0
q_12_1 114
q_12_2 5.34565881143978e-15
q_13_0 0
q_13_1 96
q_13_2 0
q_14_0 0
q_14_1 100
q_14_2 1.2430377907546308e-14
q_15_0 0
q_15_1 54
q_15_2 3.5527136788005009e-15
q_16_0 0
q_16_1 0
q_16_2 2.3100000000000003e+02
q_17_0 0
q_17_1 0
q_17_2 225
q_18_0 -3.8163916471489756e-17
q_18_1 44
q_18_2 -3.8163916471489756e-17
q_19_0 3.1225022567582528e-17
q_19_1 72
q_19_2 0
q_20_0 0
q_20_1 66
q_20_2 0
q_21_0 0
q_21_1 62
q_21_2 0
q_22_0 0
q_22_1 -3.9690473130349346e-14
q_22_2 1.4400000000000009e+02
q_23_0 -2.1701390684469857e-15
q_23_1 3.5999999999999993e+01
q_23_2 1.4849232954361469e-14
q_24_0 0
q_24_1 26
q_24_2 0
q_25_0 0
q_25_1 0
q_25_2 222
y_0_0 0
y_0_1 1
y_0_2 1
y_1_0 0
y_1_1 1
y_1_2 8.3266726846886741e-17
y_2_0 -5.1608023410310011e-17
y_2_1 9.9999999999999989e-01
y_2_2 3.4694469519536142e-17
y_3_0 -7.45931094670027e-17
y_3_1 9.9999999999999989e-01
y_3_2 6.9388939039072284e-18
y_4_0 0
y_4_1 1
y_4_2 0
y_5_0 2.9837243786801082e-16
y_5_1 1
y_5_2 -3.3566899260151217e-16
y_6_0 7.6327832942979512e-17
y_6_1 1
y_6_2 -3.3566899260151217e-16
y_7_0 -4.5102810375396984e-17
y_7_1 1
y_7_2 0
y_8_0 0
y_8_1 1
y_8_2 0
y_9_0 -1.0408340855860843e-16
y_9_1 1
y_9_2 0
y_10_0 -8.6736173798840355e-19
y_10_1 1
y_10_2 8.6736173798840355e-19
y_11_0 -5.2041704279304213e-17
y_11_1 0
y_11_2 1
y_12_0 0
y_12_1 1
y_12_2 9.3783487919996134e-17
y_13_0 0
y_13_1 1
y_13_2 0
y_14_0 0
y_14_1 1
y_14_2 2.4860755815092617e-16
y_15_0 0
y_15_1 9.9999999999999989e-01
y_15_2 0
y_16_0 0
y_16_1 0
y_16_2 1
y_17_0 0
y_17_1 0
y_17_2 1
y_18_0 -1.7347234759768071e-18
y_18_1 1
y_18_2 -1.7347234759768071e-18
y_19_0 8.6736173798840355e-19
y_19_1 9.9999999999999989e-01
y_19_2 0
y_20_0 0
y_20_1 1
y_20_2 1.8908485888147197e-16
y_21_0 0
y_21_1 1
y_21_2 0
y_22_0 0
y_22_1 -3.9725167599868882e-16
y_22_2 1.0000000000000002e+00
y_23_0 -1.2056328158038809e-16
y_23_1 9.9999999999999944e-01
y_23_2 4.7531423241764514e-16
y_24_0 0
y_24_1 1
y_24_2 0
y_25_0 0
y_25_1 0
y_25_2 1
x_0_1_0 0
x_0_1_1 0
x_0_1_2 0
x_0_2_0 0
x_0_2_1 0
x_0_2_2 0
x_0_3_0 0
x_0_3_1 0
x_0_3_2 0
x_0_4_0 0
x_0_4_1 0
x_0_4_2 0
x_0_5_0 0
x_0_5_1 0
x_0_5_2 0
x_0_6_0 0
x_0_6_1 0
x_0_6_2 0
x_0_7_0 0
x_0_7_1 0
x_0_7_2 0
x_0_8_0 0
x_0_8_1 0
x_0_8_2 0
x_0_9_0 0
x_0_9_1 0
x_0_9_2 0
x_0_10_0 0
x_0_10_1 0
x_0_10_2 0
x_0_11_0 0
x_0_11_1 0
x_0_11_2 0
x_0_12_0 0
x_0_12_1 0
x_0_12_2 0
x_0_13_0 0
x_0_13_1 0
x_0_13_2 0
x_0_14_0 0
x_0_14_1 0
x_0_14_2 0
x_0_15_0 0
x_0_15_1 0
x_0_15_2 0
x_0_16_0 0
x_0_16_1 -2.6888213877640510e-17
x_0_16_2 9.9999999999999956e-01
x_0_17_0 0
x_0_17_1 0
x_0_17_2 0
x_0_18_0 0
x_0_18_1 0
x_0_18_2 0
x_0_19_0 0
x_0_19_1 0
x_0_19_2 0
x_0_20_0 0
x_0_20_1 9.9999999999999967e-01
x_0_20_2 0
x_0_21_0 0
x_0_21_1 1.0000000000000022e+00
x_0_21_2 0
x_0_22_0 0
x_0_22_1 -7.9450335199737765e-16
x_0_22_2 0
x_0_23_0 0
x_0_23_1 0
x_0_23_2 0
x_0_24_0 0
x_0_24_1 0
x_0_24_2 0
x_0_25_0 0
x_0_25_1 0
x_0_25_2 1.0000000000000002e+00
x_1_2_0 0
x_1_2_1 1.0000000000000007e+00
x_1_2_2 8.3266726846886741e-17
x_1_3_0 0
x_1_3_1 0
x_1_3_2 0
x_1_4_0 0
x_1_4_1 0
x_1_4_2 0
x_1_5_0 0
x_1_5_1 0
x_1_5_2 0
x_1_6_0 0
x_1_6_1 0
x_1_6_2 0
x_1_7_0 0
x_1_7_1 0
x_1_7_2 0
x_1_8_0 0
x_1_8_1 -5.6378512969246231e-16
x_1_8_2 0
x_1_9_0 0
x_1_9_1 0
x_1_9_2 0
x_1_10_0 0
x_1_10_1 0
x_1_10_2 0
x_1_11_0 0
x_1_11_1 0
x_1_11_2 8.3266726846886741e-17
x_1_12_0 0
x_1_12_1 0
x_1_12_2 0
x_1_13_0 0
x_1_13_1 0
x_1_13_2 0
x_1_14_0 0
x_1_14_1 9.9999999999999989e-01
x_1_14_2 0
x_1_15_0 0
x_1_15_1 0
x_1_15_2 0
x_1_16_0 0
x_1_16_1 0
x_1_16_2 0
x_1_17_0 0
x_1_17_1 0
x_1_17_2 0
x_1_18_0 0
x_1_18_1 0
x_1_18_2 0
x_1_19_0 0
x_1_19_1 0
x_1_19_2 0
x_1_20_0 0
x_1_20_1 0
x_1_20_2 0
x_1_21_0 0
x_1_21_1 0
x_1_21_2 0
x_1_22_0 0
x_1_22_1 0
x_1_22_2 0
x_1_23_0 0
x_1_23_1 0
x_1_23_2 0
x_1_24_0 0
x_1_24_1 0
x_1_24_2 0
x_1_25_0 0
x_1_25_1 0
x_1_25_2 0
x_2_3_0 0
x_2_3_1 0
x_2_3_2 0
x_2_4_0 0
x_2_4_1 0
x_2_4_2 0
x_2_5_0 0
x_2_5_1 0
x_2_5_2 0
x_2_6_0 0
x_2_6_1 0
x_2_6_2 0
x_2_7_0 0
x_2_7_1 0
x_2_7_2 0
x_2_8_0 0
x_2_8_1 1
x_2_8_2 0
x_2_9_0 -2.0816681711721685e-16
x_2_9_1 0
x_2_9_2 0
x_2_10_0 0
x_2_10_1 0
x_2_10_2 0
x_2_11_0 0
x_2_11_1 0
x_2_11_2 0
x_2_12_0 0
x_2_12_1 0
x_2_12_2 0
x_2_13_0 0
x_2_13_1 0
x_2_13_2 0
x_2_14_0 1.0408340855860843e-16
x_2_14_1 -5.0740661672321608e-16
x_2_14_2 0
x_2_15_0 0
x_2_15_1 0
x_2_15_2 0
x_2_16_0 0
x_2_16_1 0
x_2_16_2 0
x_2_17_0 0
x_2_17_1 0
x_2_17_2 0
x_2_18_0 0
x_2_18_1 0
x_2_18_2 0
x_2_19_0 0
x_2_19_1 0
x_2_19_2 0
x_2_20_0 0
x_2_20_1 0
x_2_20_2 0
x_2_21_0 0
x_2_21_1 0
x_2_21_2 0
x_2_22_0 0
x_2_22_1 0
x_2_22_2 0
x_2_23_0 0
x_2_23_1 0
x_2_23_2 0
x_2_24_0 0
x_2_24_1 0
x_2_24_2 0
x_2_25_0 0
x_2_25_1 0
x_2_25_2 0
x_3_4_0 0
x_3_4_1 0
x_3_4_2 0
x_3_5_0 0
x_3_5_1 0
x_3_5_2 0
x_3_6_0 0
x_3_6_1 0
x_3_6_2 0
x_3_7_0 0
x_3_7_1 0
x_3_7_2 0
x_3_8_0 1.7347234759768071e-18
x_3_8_1 0
x_3_8_2 0
x_3_9_0 0
x_3_9_1 0
x_3_9_2 0
x_3_10_0 0
x_3_10_1 9.9999999999999989e-01
x_3_10_2 6.9388939039072284e-18
x_3_11_0 0
x_3_11_1 0
x_3_11_2 0
x_3_12_0 -1.4918621893400541e-16
x_3_12_1 -4.2327252813834093e-16
x_3_12_2 0
x_3_13_0 0
x_3_13_1 3.2612801348363973e-16
x_3_13_2 0
x_3_14_0 0
x_3_14_1 0
x_3_14_2 0
x_3_15_0 0
x_3_15_1 0
x_3_15_2 0
x_3_16_0 0
x_3_16_1 0
x_3_16_2 0
x_3_17_0 0
x_3_17_1 0
x_3_17_2 0
x_3_18_0 0
x_3_18_1 0
x_3_18_2 0
x_3_19_0 0
x_3_19_1 0
x_3_19_2 0
x_3_20_0 0
x_3_20_1 0
x_3_20_2 0
x_3_21_0 0
x_3_21_1 0
x_3_21_2 0
x_3_22_0 0
x_3_22_1 0
x_3_22_2 0
x_3_23_0 0
x_3_23_1 0
x_3_23_2 0
x_3_24_0 0
x_3_24_1 1
x_3_24_2 0
x_3_25_0 0
x_3_25_1 0
x_3_25_2 0
x_4_5_0 0
x_4_5_1 1
x_4_5_2 0
x_4_6_0 0
x_4_6_1 0
x_4_6_2 0
x_4_7_0 0
x_4_7_1 0
x_4_7_2 0
x_4_8_0 0
x_4_8_1 0
x_4_8_2 0
x_4_9_0 0
x_4_9_1 0
x_4_9_2 0
x_4_10_0 0
x_4_10_1 0
x_4_10_2 0
x_4_11_0 0
x_4_11_1 0
x_4_11_2 0
x_4_12_0 0
x_4_12_1 0
x_4_12_2 0
x_4_13_0 0
x_4_13_1 9.9999999999999989e-01
x_4_13_2 0
x_4_14_0 0
x_4_14_1 0
x_4_14_2 0
x_4_15_0 0
x_4_15_1 0
x_4_15_2 0
x_4_16_0 0
x_4_16_1 0
x_4_16_2 0
x_4_17_0 0
x_4_17_1 0
x_4_17_2 0
x_4_18_0 0
x_4_18_1 0
x_4_18_2 0
x_4_19_0 0
x_4_19_1 0
x_4_19_2 0
x_4_20_0 0
x_4_20_1 0
x_4_20_2 0
x_4_21_0 0
x_4_21_1 0
x_4_21_2 0
x_4_22_0 0
x_4_22_1 0
x_4_22_2 0
x_4_23_0 0
x_4_23_1 0
x_4_23_2 0
x_4_24_0 0
x_4_24_1 0
x_4_24_2 0
x_4_25_0 0
x_4_25_1 0
x_4_25_2 0
x_5_6_0 2.4980018054066022e-16
x_5_6_1 0
x_5_6_2 -6.7133798520302435e-16
x_5_7_0 0
x_5_7_1 1
x_5_7_2 0
x_5_8_0 0
x_5_8_1 0
x_5_8_2 0
x_5_9_0 0
x_5_9_1 0
x_5_9_2 0
x_5_10_0 0
x_5_10_1 0
x_5_10_2 0
x_5_11_0 0
x_5_11_1 0
x_5_11_2 0
x_5_12_0 0
x_5_12_1 0
x_5_12_2 0
x_5_13_0 3.5041414214731503e-16
x_5_13_1 0
x_5_13_2 0
x_5_14_0 0
x_5_14_1 0
x_5_14_2 0
x_5_15_0 0
x_5_15_1 0
x_5_15_2 0
x_5_16_0 0
x_5_16_1 0
x_5_16_2 0
x_5_17_0 0
x_5_17_1 0
x_5_17_2 0
x_5_18_0 0
x_5_18_1 0
x_5_18_2 0
x_5_19_0 0
x_5_19_1 0
x_5_19_2 0
x_5_20_0 0
x_5_20_1 0
x_5_20_2 0
x_5_21_0 0
x_5_21_1 0
x_5_21_2 0
x_5_22_0 0
x_5_22_1 0
x_5_22_2 0
x_5_23_0 0
x_5_23_1 0
x_5_23_2 0
x_5_24_0 0
x_5_24_1 0
x_5_24_2 0
x_5_25_0 0
x_5_25_1 0
x_5_25_2 0
x_6_7_0 7.6327832942979512e-17
x_6_7_1 1
x_6_7_2 0
x_6_8_0 0
x_6_8_1 0
x_6_8_2 0
x_6_9_0 0
x_6_9_1 0
x_6_9_2 0
x_6_10_0 0
x_6_10_1 0
x_6_10_2 0
x_6_11_0 0
x_6_11_1 0
x_6_11_2 0
x_6_12_0 0
x_6_12_1 0
x_6_12_2 0
x_6_13_0 0
x_6_13_1 0
x_6_13_2 0
x_6_14_0 0
x_6_14_1 0
x_6_14_2 0
x_6_15_0 0
x_6_15_1 0
x_6_15_2 0
x_6_16_0 0
x_6_16_1 0
x_6_16_2 0
x_6_17_0 0
x_6_17_1 0
x_6_17_2 0
x_6_18_0 0
x_6_18_1 0
x_6_18_2 0
x_6_19_0 0
x_6_19_1 0
x_6_19_2 0
x_6_20_0 0
x_6_20_1 0
x_6_20_2 0
x_6_21_0 0
x_6_21_1 5.1347814888913490e-16
x_6_21_2 0
x_6_22_0 0
x_6_22_1 0
x_6_22_2 0
x_6_23_0 -1.7000290064572710e-16
x_6_23_1 9.9999999999999944e-01
x_6_23_2 0
x_6_24_0 0
x_6_24_1 0
x_6_24_2 0
x_6_25_0 0
x_6_25_1 0
x_6_25_2 0
x_7_8_0 0
x_7_8_1 0
x_7_8_2 0
x_7_9_0 0
x_7_9_1 0
x_7_9_2 0
x_7_10_0 0
x_7_10_1 0
x_7_10_2 0
x_7_11_0 0
x_7_11_1 0
x_7_11_2 0
x_7_12_0 1.4918621893400541e-16
x_7_12_1 0
x_7_12_2 0
x_7_13_0 -3.4347524824340780e-16
x_7_13_1 7.6327832942979512e-17
x_7_13_2 0
x_7_14_0 0
x_7_14_1 0
x_7_14_2 0
x_7_15_0 0
x_7_15_1 0
x_7_15_2 0
x_7_16_0 0
x_7_16_1 0
x_7_16_2 0
x_7_17_0 0
x_7_17_1 0
x_7_17_2 0
x_7_18_0 0
x_7_18_1 0
x_7_18_2 0
x_7_19_0 0
x_7_19_1 0
x_7_19_2 0
x_7_20_0 0
x_7_20_1 0
x_7_20_2 0
x_7_21_0 4.5102810375396984e-17
x_7_21_1 6.9388939039072284e-18
x_7_21_2 0
x_7_22_0 0
x_7_22_1 0
x_7_22_2 0
x_7_23_0 0
x_7_23_1 0
x_7_23_2 0
x_7_24_0 0
x_7_24_1 0
x_7_24_2 0
x_7_25_0 0
x_7_25_1 0
x_7_25_2 0
x_8_9_0 0
x_8_9_1 0
x_8_9_2 0
x_8_10_0 0
x_8_10_1 0
x_8_10_2 0
x_8_11_0 0
x_8_11_1 0
x_8_11_2 0
x_8_12_0 0
x_8_12_1 0
x_8_12_2 0
x_8_13_0 0
x_8_13_1 0
x_8_13_2 0
x_8_14_0 0
x_8_14_1 0
x_8_14_2 0
x_8_15_0 -3.4694469519536142e-18
x_8_15_1 1.0000000000000004e+00
x_8_15_2 0
x_8_16_0 0
x_8_16_1 0
x_8_16_2 0
x_8_17_0 0
x_8_17_1 0
x_8_17_2 0
x_8_18_0 0
x_8_18_1 1.7347234759768071e-18
x_8_18_2 0
x_8_19_0 0
x_8_19_1 0
x_8_19_2 0
x_8_20_0 0
x_8_20_1 0
x_8_20_2 0
x_8_21_0 0
x_8_21_1 0
x_8_21_2 0
x_8_22_0 0
x_8_22_1 0
x_8_22_2 0
x_8_23_0 0
x_8_23_1 0
x_8_23_2 0
x_8_24_0 0
x_8_24_1 0
x_8_24_2 0
x_8_25_0 0
x_8_25_1 0
x_8_25_2 0
x_9_10_0 0
x_9_10_1 0
x_9_10_2 0
x_9_11_0 0
x_9_11_1 0
x_9_11_2 0
x_9_12_0 0
x_9_12_1 0
x_9_12_2 0
x_9_13_0 0
x_9_13_1 0
x_9_13_2 0
x_9_14_0 0
x_9_14_1 9.9999999999999989e-01
x_9_14_2 0
x_9_15_0 0
x_9_15_1 0
x_9_15_2 0
x_9_16_0 0
x_9_16_1 0
x_9_16_2 0
x_9_17_0 0
x_9_17_1 0
x_9_17_2 0
x_9_18_0 0
x_9_18_1 0
x_9_18_2 0
x_9_19_0 0
x_9_19_1 0
x_9_19_2 0
x_9_20_0 0
x_9_20_1 1.0000000000000002e+00
x_9_20_2 0
x_9_21_0 0
x_9_21_1 0
x_9_21_2 0
x_9_22_0 0
x_9_22_1 0
x_9_22_2 0
x_9_23_0 0
x_9_23_1 0
x_9_23_2 0
x_9_24_0 0
x_9_24_1 0
x_9_24_2 0
x_9_25_0 0
x_9_25_1 0
x_9_25_2 0
x_10_11_0 0
x_10_11_1 0
x_10_11_2 0
x_10_12_0 0
x_10_12_1 0
x_10_12_2 0
x_10_13_0 0
x_10_13_1 1.9081958235744878e-16
x_10_13_2 0
x_10_14_0 0
x_10_14_1 0
x_10_14_2 0
x_10_15_0 0
x_10_15_1 0
x_10_15_2 3.4694469519536142e-18
x_10_16_0 0
x_10_16_1 0
x_10_16_2 0
x_10_17_0 0
x_10_17_1 0
x_10_17_2 0
x_10_18_0 -1.7347234759768071e-18
x_10_18_1 1
x_10_18_2 -6.9388939039072284e-18
x_10_19_0 0
x_10_19_1 0
x_10_19_2 0
x_10_20_0 0
x_10_20_1 0
x_10_20_2 0
x_10_21_0 0
x_10_21_1 0
x_10_21_2 0
x_10_22_0 0
x_10_22_1 0
x_10_22_2 0
x_10_23_0 0
x_10_23_1 0
x_10_23_2 0
x_10_24_0 0
x_10_24_1 0
x_10_24_2 0
x_10_25_0 0
x_10_25_1 0
x_10_25_2 0
x_11_12_0 0
x_11_12_1 0
x_11_12_2 0
x_11_13_0 0
x_11_13_1 0
x_11_13_2 0
x_11_14_0 -1.0408340855860843e-16
x_11_14_1 0
x_11_14_2 4.9721511630185233e-16
x_11_15_0 0
x_11_15_1 0
x_11_15_2 0
x_11_16_0 0
x_11_16_1 0
x_11_16_2 9.9999999999999978e-01
x_11_17_0 0
x_11_17_1 0
x_11_17_2 9.9999999999999956e-01
x_11_18_0 0
x_11_18_1 0
x_11_18_2 0
x_11_19_0 0
x_11_19_1 0
x_11_19_2 0
x_11_20_0 0
x_11_20_1 0
x_11_20_2 0
x_11_21_0 0
x_11_21_1 0
x_11_21_2 0
x_11_22_0 0
x_11_22_1 0
x_11_22_2 0
x_11_23_0 0
x_11_23_1 0
x_11_23_2 0
x_11_24_0 0
x_11_24_1 0
x_11_24_2 0
x_11_25_0 0
x_11_25_1 0
x_11_25_2 0
x_12_13_0 0
x_12_13_1 1
x_12_13_2 0
x_12_14_0 0
x_12_14_1 0
x_12_14_2 0
x_12_15_0 0
x_12_15_1 0
x_12_15_2 0
x_12_16_0 0
x_12_16_1 0
x_12_16_2 0
x_12_17_0 0
x_12_17_1 0
x_12_17_2 0
x_12_18_0 0
x_12_18_1 0
x_12_18_2 0
x_12_19_0 0
x_12_19_1 1.0000000000000004e+00
x_12_19_2 1.8756697583999227e-16
x_12_20_0 0
x_12_20_1 0
x_12_20_2 0
x_12_21_0 0
x_12_21_1 0
x_12_21_2 0
x_12_22_0 0
x_12_22_1 0
x_12_22_2 0
x_12_23_0 0
x_12_23_1 0
x_12_23_2 0
x_12_24_0 0
x_12_24_1 0
x_12_24_2 0
x_12_25_0 0
x_12_25_1 0
x_12_25_2 0
x_13_14_0 0
x_13_14_1 0
x_13_14_2 0
x_13_15_0 0
x_13_15_1 -5.3602955407683339e-16
x_13_15_2 0
x_13_16_0 0
x_13_16_1 0
x_13_16_2 0
x_13_17_0 0
x_13_17_1 0
x_13_17_2 0
x_13_18_0 0
x_13_18_1 0
x_13_18_2 0
x_13_19_0 0
x_13_19_1 0
x_13_19_2 0
x_13_20_0 0
x_13_20_1 0
x_13_20_2 0
x_13_21_0 0
x_13_21_1 0
x_13_21_2 0
x_13_22_0 0
x_13_22_1 0
x_13_22_2 0
x_13_23_0 0
x_13_23_1 0
x_13_23_2 0
x_13_24_0 0
x_13_24_1 0
x_13_24_2 0
x_13_25_0 0
x_13_25_1 0
x_13_25_2 0
x_14_15_0 0
x_14_15_1 0
x_14_15_2 0
x_14_16_0 0
x_14_16_1 2.6888213877640510e-17
x_14_16_2 0
x_14_17_0 0
x_14_17_1 0
x_14_17_2 0
x_14_18_0 0
x_14_18_1 0
x_14_18_2 0
x_14_19_0 0
x_14_19_1 0
x_14_19_2 0
x_14_20_0 0
x_14_20_1 5.7766291750027676e-16
x_14_20_2 0
x_14_21_0 0
x_14_21_1 0
x_14_21_2 0
x_14_22_0 0
x_14_22_1 0
x_14_22_2 0
x_14_23_0 0
x_14_23_1 0
x_14_23_2 0
x_14_24_0 0
x_14_24_1 0
x_14_24_2 0
x_14_25_0 0
x_14_25_1 0
x_14_25_2 0
x_15_16_0 0
x_15_16_1 0
x_15_16_2 0
x_15_17_0 0
x_15_17_1 0
x_15_17_2 0
x_15_18_0 0
x_15_18_1 9.9999999999999989e-01
x_15_18_2 3.4694469519536142e-18
x_15_19_0 0
x_15_19_1 0
x_15_19_2 0
x_15_20_0 0
x_15_20_1 0
x_15_20_2 0
x_15_21_0 0
x_15_21_1 0
x_15_21_2 0
x_15_22_0 0
x_15_22_1 0
x_15_22_2 0
x_15_23_0 0
x_15_23_1 0
x_15_23_2 0
x_15_24_0 0
x_15_24_1 0
x_15_24_2 0
x_15_25_0 0
x_15_25_1 0
x_15_25_2 0
x_16_17_0 0
x_16_17_1 0
x_16_17_2 6.5399075044325627e-16
x_16_18_0 0
x_16_18_1 0
x_16_18_2 0
x_16_19_0 0
x_16_19_1 0
x_16_19_2 0
x_16_20_0 0
x_16_20_1 0
x_16_20_2 0
x_16_21_0 0
x_16_21_1 0
x_16_21_2 0
x_16_22_0 0
x_16_22_1 0
x_16_22_2 0
x_16_23_0 0
x_16_23_1 0
x_16_23_2 0
x_16_24_0 0
x_16_24_1 0
x_16_24_2 0
x_16_25_0 0
x_16_25_1 0
x_16_25_2 0
x_17_18_0 0
x_17_18_1 0
x_17_18_2 0
x_17_19_0 0
x_17_19_1 0
x_17_19_2 -2.7278526659735292e-16
x_17_20_0 0
x_17_20_1 0
x_17_20_2 1.9081958235744878e-16
x_17_21_0 0
x_17_21_1 0
x_17_21_2 0
x_17_22_0 0
x_17_22_1 0
x_17_22_2 1.0000000000000007e+00
x_17_23_0 0
x_17_23_1 0
x_17_23_2 0
x_17_24_0 0
x_17_24_1 0
x_17_24_2 0
x_17_25_0 0
x_17_25_1 0
x_17_25_2 -3.8749385644631928e-16
x_18_19_0 0
x_18_19_1 0
x_18_19_2 0
x_18_20_0 0
x_18_20_1 0
x_18_20_2 0
x_18_21_0 0
x_18_21_1 0
x_18_21_2 0
x_18_22_0 0
x_18_22_1 0
x_18_22_2 0
x_18_23_0 0
x_18_23_1 0
x_18_23_2 0
x_18_24_0 0
x_18_24_1 0
x_18_24_2 0
x_18_25_0 0
x_18_25_1 0
x_18_25_2 0
x_19_20_0 0
x_19_20_1 0
x_19_20_2 0
x_19_21_0 1.7347234759768071e-18
x_19_21_1 -1.9697785069716645e-15
x_19_21_2 -3.3566899260151217e-16
x_19_22_0 0
x_19_22_1 0
x_19_22_2 0
x_19_23_0 0
x_19_23_1 0
x_19_23_2 5.0306980803327406e-16
x_19_24_0 0
x_19_24_1 1.0000000000000004e+00
x_19_24_2 -2.3852447794681098e-17
x_19_25_0 0
x_19_25_1 0
x_19_25_2 0
x_20_21_0 0
x_20_21_1 0
x_20_21_2 0
x_20_22_0 0
x_20_22_1 0
x_20_22_2 0
x_20_23_0 0
x_20_23_1 0
x_20_23_2 0
x_20_24_0 0
x_20_24_1 -4.1806835771041051e-16
x_20_24_2 1.8735013540549517e-16
x_20_25_0 0
x_20_25_1 0
x_20_25_2 0
x_21_22_0 0
x_21_22_1 0
x_21_22_2 0
x_21_23_0 -6.7654215563095477e-17
x_21_23_1 9.9999999999999944e-01
x_21_23_2 3.3566899260151217e-16
x_21_24_0 0
x_21_24_1 0
x_21_24_2 0
x_21_25_0 0
x_21_25_1 0
x_21_25_2 0
x_22_23_0 0
x_22_23_1 0
x_22_23_2 0
x_22_24_0 0
x_22_24_1 0
x_22_24_2 0
x_22_25_0 0
x_22_25_1 0
x_22_25_2 1
x_23_24_0 0
x_23_24_1 0
x_23_24_2 0
x_23_25_0 0
x_23_25_1 0
x_23_25_2 0
x_24_25_0 0
x_24_25_1 0
x_24_25_2 0
